NAME 
ROWS
 N  OBJ
 L  R0      
 L  R1      
 L  R2      
 E  R3      
 E  R4      
 E  R5      
 E  R6      
 E  R7      
 E  R8      
 E  R9      
 E  R10     
 E  R11     
 E  R12     
 E  R13     
 E  R14     
 E  R15     
 E  R16     
 E  R17     
COLUMNS
    MARKER    'MARKER'                 'INTORG'
    I0(9)     OBJ       -121
    I0(9)     R0        -114
    I0(9)     R1        149
    I0(9)     R2        51
    I0(9)     R3        19
    I0(9)     R4        11
    I0(9)     R5        17
    I0(9)     R6        4
    I0(9)     R8        3
    I0(9)     R17       1
    I1(7)     OBJ       68
    I1(7)     R0        52
    I1(7)     R1        60
    I1(7)     R2        135
    I1(7)     R5        5
    I1(7)     R6        18
    I1(7)     R7        14
    I1(7)     R17       1
    I2(9)     OBJ       -191
    I2(9)     R0        -175
    I2(9)     R1        157
    I2(9)     R2        40
    I2(9)     R3        14
    I2(9)     R4        16
    I2(9)     R5        9
    I2(9)     R6        19
    I2(9)     R7        4
    I2(9)     R17       1
    I3(7)     OBJ       -122
    I3(7)     R0        120
    I3(7)     R1        -143
    I3(7)     R2        167
    I3(7)     R6        3
    I3(7)     R7        8
    I3(7)     R8        15
    I3(7)     R17       1
    I4(8)     OBJ       57
    I4(8)     R0        18
    I4(8)     R1        157
    I4(8)     R2        184
    I4(8)     R3        9
    I4(8)     R4        19
    I4(8)     R5        15
    I4(8)     R6        9
    I4(8)     R17       1
    I5(8)     OBJ       -104
    I5(8)     R0        1
    I5(8)     R1        75
    I5(8)     R2        21
    I5(8)     R4        19
    I5(8)     R5        10
    I5(8)     R6        17
    I5(8)     R7        13
    I5(8)     R17       1
    MARKER    'MARKER'                 'INTEND'
    C6(12)    OBJ       -2
    C6(12)    R0        -1
    C6(12)    R1        -8
    C6(12)    R2        6
    C6(12)    R4        4
    C6(12)    R5        11
    C6(12)    R8        19
    C6(12)    R9        5
    C6(12)    R10       17
    C6(12)    R13       3
    C6(12)    R14       3
    C6(12)    R15       11
    C6(12)    R16       17
    C7(16)    OBJ       -6
    C7(16)    R0        4
    C7(16)    R1        -8
    C7(16)    R2        7
    C7(16)    R3        1
    C7(16)    R4        -1
    C7(16)    R5        18
    C7(16)    R6        5
    C7(16)    R7        1
    C7(16)    R8        16
    C7(16)    R10       19
    C7(16)    R11       1
    C7(16)    R12       10
    C7(16)    R13       9
    C7(16)    R14       6
    C7(16)    R15       10
    C7(16)    R16       4
    C8(7)     OBJ       8
    C8(7)     R0        -10
    C8(7)     R1        2
    C8(7)     R2        -6
    C8(7)     R5        3
    C8(7)     R12       7
    C8(7)     R13       18
    C8(7)     R14       15
    C9(12)    OBJ       -10
    C9(12)    R0        3
    C9(12)    R1        -3
    C9(12)    R2        -4
    C9(12)    R4        13
    C9(12)    R5        8
    C9(12)    R6        3
    C9(12)    R8        6
    C9(12)    R9        7
    C9(12)    R10       10
    C9(12)    R13       7
    C9(12)    R15       14
    C9(12)    R16       18
    C10(12)   R0        -10
    C10(12)   R1        -1
    C10(12)   R2        -4
    C10(12)   R3        4
    C10(12)   R5        1
    C10(12)   R6        6
    C10(12)   R8        13
    C10(12)   R9        -1
    C10(12)   R11       16
    C10(12)   R13       3
    C10(12)   R14       18
    C10(12)   R15       17
    C11(12)   OBJ       -5
    C11(12)   R0        8
    C11(12)   R1        -5
    C11(12)   R2        4
    C11(12)   R4        3
    C11(12)   R7        8
    C11(12)   R9        19
    C11(12)   R10       9
    C11(12)   R11       -1
    C11(12)   R12       18
    C11(12)   R13       7
    C11(12)   R15       9
    C11(12)   R16       5
    C12(12)   OBJ       -7
    C12(12)   R0        2
    C12(12)   R1        -2
    C12(12)   R2        1
    C12(12)   R3        12
    C12(12)   R4        17
    C12(12)   R5        7
    C12(12)   R6        12
    C12(12)   R7        17
    C12(12)   R8        19
    C12(12)   R10       9
    C12(12)   R12       2
    C12(12)   R14       10
    C13(11)   OBJ       -7
    C13(11)   R0        -9
    C13(11)   R1        1
    C13(11)   R2        9
    C13(11)   R3        15
    C13(11)   R4        16
    C13(11)   R6        10
    C13(11)   R8        16
    C13(11)   R9        2
    C13(11)   R13       17
    C13(11)   R15       6
    C13(11)   R16       9
    C14(15)   OBJ       9
    C14(15)   R0        4
    C14(15)   R1        -6
    C14(15)   R2        6
    C14(15)   R3        4
    C14(15)   R4        18
    C14(15)   R5        10
    C14(15)   R6        6
    C14(15)   R7        1
    C14(15)   R8        9
    C14(15)   R9        19
    C14(15)   R11       14
    C14(15)   R12       13
    C14(15)   R13       5
    C14(15)   R15       10
    C14(15)   R16       11
    C15(1)    R3        1
    C16(1)    R4        1
    C17(1)    R5        1
    C18(1)    R6        1
    C19(1)    R7        1
    C20(1)    R8        1
    C21(1)    R9        1
    C22(1)    R10       1
    C23(1)    R11       1
    C24(1)    R12       1
    C25(1)    R13       1
    C26(1)    R14       1
    C27(1)    R15       1
    C28(1)    R16       1
    C29(1)    R17       1
RHS
    RHS1      R0        -3.1730308989520751e+02
    RHS1      R1        2.8465911478677833e+02
    RHS1      R2        8.9764715390210426e+01
    RHS1      R3        84
    RHS1      R4        99
    RHS1      R5        89
    RHS1      R6        73
    RHS1      R7        99
    RHS1      R8        99
    RHS1      R9        59
    RHS1      R10       93
    RHS1      R11       93
    RHS1      R12       58
    RHS1      R13       73
    RHS1      R14       56
    RHS1      R15       59
    RHS1      R16       92
    RHS1      R17       2
BOUNDS
 UP BND1      I0(9)     2
 UP BND1      I1(7)     2
 UP BND1      I2(9)     2
 UP BND1      I3(7)     2
 UP BND1      I4(8)     2
 UP BND1      I5(8)     2
ENDATA
